c Reduced graph for myciel6g generated by Cyril Grelier
p edge 95 755
e 1 2
e 1 6
e 1 7
e 1 10
e 1 15
e 1 18
e 1 19
e 1 20
e 1 21
e 1 27
e 1 33
e 1 36
e 1 40
e 1 44
e 1 48
e 1 49
e 1 52
e 1 53
e 1 55
e 1 58
e 1 61
e 1 69
e 1 70
e 1 71
e 1 73
e 1 76
e 1 77
e 1 80
e 1 82
e 1 84
e 1 86
e 1 93
e 2 8
e 2 9
e 2 13
e 2 16
e 2 17
e 2 23
e 2 28
e 2 29
e 2 31
e 2 35
e 2 43
e 2 46
e 2 47
e 2 50
e 2 51
e 2 56
e 2 59
e 2 60
e 2 65
e 2 66
e 2 67
e 2 68
e 2 72
e 2 74
e 2 83
e 2 85
e 2 88
e 2 89
e 2 90
e 2 94
e 2 95
e 3 8
e 3 12
e 3 15
e 3 16
e 3 31
e 3 32
e 3 34
e 3 39
e 3 40
e 3 45
e 3 48
e 3 49
e 3 52
e 3 55
e 3 56
e 3 57
e 3 64
e 3 66
e 3 67
e 3 68
e 3 75
e 3 83
e 3 84
e 3 86
e 4 5
e 4 20
e 4 25
e 4 28
e 4 29
e 4 34
e 4 35
e 4 36
e 4 37
e 4 43
e 4 52
e 4 53
e 4 54
e 4 66
e 4 72
e 4 73
e 4 75
e 4 76
e 4 77
e 4 78
e 4 83
e 4 84
e 4 85
e 4 91
e 5 6
e 5 7
e 5 11
e 5 12
e 5 15
e 5 16
e 5 30
e 5 33
e 5 39
e 5 40
e 5 45
e 5 46
e 5 47
e 5 51
e 5 55
e 5 56
e 5 57
e 5 65
e 5 67
e 5 68
e 5 82
e 5 86
e 6 8
e 6 9
e 6 17
e 6 25
e 6 28
e 6 29
e 6 31
e 6 35
e 6 37
e 6 43
e 6 50
e 6 66
e 6 72
e 6 74
e 6 75
e 6 83
e 6 85
e 6 89
e 7 25
e 7 29
e 7 31
e 7 32
e 7 34
e 7 35
e 7 37
e 7 41
e 7 43
e 7 50
e 7 54
e 7 63
e 7 66
e 7 75
e 7 78
e 7 81
e 7 89
e 7 91
e 8 10
e 8 11
e 8 14
e 8 19
e 8 30
e 8 33
e 8 42
e 8 53
e 8 54
e 8 62
e 8 63
e 8 70
e 8 77
e 8 78
e 8 81
e 9 11
e 9 15
e 9 30
e 9 32
e 9 33
e 9 34
e 9 39
e 9 45
e 9 49
e 9 52
e 9 55
e 9 57
e 9 63
e 9 77
e 9 78
e 10 16
e 10 28
e 10 29
e 10 31
e 10 45
e 10 46
e 10 47
e 10 51
e 10 56
e 10 65
e 10 66
e 10 67
e 10 68
e 10 74
e 10 83
e 11 17
e 11 25
e 11 26
e 11 27
e 11 37
e 11 48
e 11 64
e 11 71
e 11 74
e 11 75
e 11 79
e 11 80
e 11 87
e 12 25
e 12 28
e 12 29
e 12 35
e 12 36
e 12 53
e 12 54
e 12 62
e 12 76
e 12 77
e 12 78
e 12 85
e 13 25
e 13 32
e 13 34
e 13 45
e 13 49
e 13 52
e 13 63
e 13 75
e 13 77
e 13 78
e 14 25
e 14 27
e 14 28
e 14 45
e 14 48
e 14 74
e 14 75
e 14 76
e 14 83
e 14 84
e 15 25
e 15 26
e 15 50
e 15 62
e 15 74
e 15 79
e 16 25
e 16 26
e 16 62
e 16 63
e 16 79
e 16 81
e 17 30
e 17 33
e 17 45
e 17 62
e 17 63
e 17 77
e 17 78
e 18 28
e 18 29
e 18 45
e 18 46
e 18 47
e 18 51
e 18 62
e 18 65
e 18 74
e 19 25
e 19 26
e 19 31
e 19 45
e 19 64
e 19 74
e 19 75
e 20 26
e 20 30
e 20 45
e 20 46
e 20 62
e 20 63
e 21 25
e 21 28
e 21 29
e 21 45
e 21 62
e 21 74
e 22 25
e 22 27
e 22 28
e 22 45
e 22 62
e 22 74
e 22 76
e 23 25
e 23 26
e 23 27
e 23 45
e 23 62
e 24 25
e 24 26
e 24 27
e 24 45
e 24 62
e 24 74
e 25 30
e 25 33
e 25 38
e 25 39
e 25 40
e 25 42
e 25 44
e 25 46
e 25 47
e 25 51
e 25 55
e 25 56
e 25 57
e 25 58
e 25 59
e 25 60
e 25 61
e 25 65
e 25 67
e 25 68
e 25 69
e 25 70
e 25 82
e 25 86
e 25 88
e 25 90
e 25 92
e 25 93
e 25 94
e 25 95
e 26 28
e 26 29
e 26 33
e 26 34
e 26 35
e 26 36
e 26 40
e 26 42
e 26 43
e 26 44
e 26 51
e 26 52
e 26 53
e 26 54
e 26 56
e 26 57
e 26 58
e 26 59
e 26 61
e 26 65
e 26 66
e 26 72
e 26 73
e 26 76
e 26 77
e 26 78
e 26 82
e 26 83
e 26 84
e 26 85
e 26 90
e 26 91
e 26 95
e 27 29
e 27 30
e 27 31
e 27 32
e 27 34
e 27 35
e 27 39
e 27 41
e 27 42
e 27 43
e 27 46
e 27 50
e 27 54
e 27 56
e 27 57
e 27 63
e 27 65
e 27 66
e 27 67
e 27 78
e 27 81
e 27 88
e 27 89
e 27 90
e 27 91
e 27 94
e 28 30
e 28 32
e 28 38
e 28 39
e 28 41
e 28 49
e 28 55
e 28 63
e 28 64
e 28 70
e 28 79
e 28 81
e 28 87
e 28 92
e 29 38
e 29 48
e 29 49
e 29 55
e 29 64
e 29 69
e 29 70
e 29 71
e 29 79
e 29 80
e 29 86
e 29 87
e 29 92
e 29 93
e 30 36
e 30 37
e 30 48
e 30 71
e 30 72
e 30 74
e 30 75
e 30 76
e 30 80
e 30 83
e 30 84
e 30 85
e 31 33
e 31 36
e 31 53
e 31 58
e 31 62
e 31 69
e 31 70
e 31 76
e 31 77
e 31 80
e 31 82
e 32 36
e 32 47
e 32 51
e 32 58
e 32 59
e 32 62
e 32 69
e 32 74
e 32 76
e 32 80
e 32 82
e 32 85
e 33 37
e 33 50
e 33 64
e 33 74
e 33 75
e 33 79
e 33 87
e 33 89
e 34 38
e 34 47
e 34 62
e 34 69
e 34 74
e 34 79
e 34 80
e 35 45
e 35 48
e 35 49
e 35 55
e 35 64
e 35 86
e 36 39
e 36 45
e 36 46
e 36 63
e 36 64
e 36 67
e 37 45
e 37 46
e 37 47
e 37 51
e 37 62
e 37 65
e 37 82
e 38 45
e 38 52
e 38 66
e 38 75
e 38 76
e 38 77
e 38 78
e 38 83
e 38 84
e 39 62
e 39 74
e 39 76
e 39 80
e 39 85
e 40 50
e 40 62
e 40 63
e 40 79
e 40 81
e 41 45
e 41 47
e 41 51
e 41 62
e 41 74
e 41 76
e 41 82
e 42 45
e 42 48
e 42 64
e 42 74
e 42 75
e 43 45
e 43 62
e 44 45
e 44 62
e 44 74
e 45 50
e 45 53
e 45 54
e 45 58
e 45 59
e 45 60
e 45 61
e 45 69
e 45 70
e 45 71
e 45 72
e 45 73
e 45 79
e 45 80
e 45 81
e 45 85
e 45 87
e 45 88
e 45 89
e 45 90
e 45 91
e 45 92
e 45 93
e 45 94
e 45 95
e 46 48
e 46 49
e 46 52
e 46 53
e 46 71
e 46 73
e 46 75
e 46 76
e 46 77
e 46 80
e 46 84
e 47 49
e 47 52
e 47 53
e 47 54
e 47 63
e 47 73
e 47 75
e 47 77
e 47 78
e 47 81
e 47 91
e 48 50
e 48 54
e 48 62
e 48 63
e 48 65
e 48 78
e 48 81
e 48 88
e 48 90
e 49 50
e 49 51
e 49 59
e 49 62
e 49 65
e 49 74
e 49 85
e 49 88
e 49 90
e 50 52
e 50 55
e 50 76
e 50 77
e 50 82
e 50 84
e 50 86
e 51 63
e 51 64
e 51 75
e 51 79
e 51 81
e 51 87
e 52 62
e 52 74
e 52 79
e 52 88
e 53 64
e 53 67
e 53 68
e 53 74
e 54 64
e 54 68
e 54 74
e 54 86
e 55 62
e 55 74
e 55 85
e 56 62
e 56 79
e 56 80
e 57 62
e 57 74
e 57 79
e 57 80
e 58 63
e 58 64
e 58 75
e 59 63
e 59 64
e 59 75
e 60 62
e 60 63
e 60 77
e 60 78
e 61 62
e 61 63
e 62 64
e 62 66
e 62 67
e 62 68
e 62 71
e 62 72
e 62 73
e 62 75
e 62 83
e 62 84
e 62 86
e 62 87
e 62 89
e 62 91
e 62 92
e 62 93
e 62 94
e 62 95
e 63 68
e 63 69
e 63 71
e 63 72
e 63 74
e 63 76
e 63 80
e 63 82
e 63 83
e 63 84
e 63 85
e 63 86
e 63 93
e 63 95
e 64 65
e 64 76
e 64 77
e 64 78
e 64 82
e 64 85
e 64 90
e 65 71
e 65 75
e 65 79
e 65 80
e 65 87
e 66 69
e 66 70
e 66 79
e 66 80
e 67 76
e 67 77
e 67 80
e 68 77
e 68 78
e 68 81
e 69 75
e 69 78
e 70 74
e 70 75
e 70 83
e 71 78
e 73 74
e 74 77
e 74 78
e 74 81
e 74 91
e 75 82
e 75 88
e 75 90
e 76 79
e 76 81
e 76 87
e 76 88
e 76 89
e 76 92
e 76 94
e 77 79
e 77 87
e 77 88
e 77 89
e 77 92
e 77 94
e 78 79
e 78 80
e 78 86
e 78 87
e 78 92
e 78 93
e 79 82
e 79 83
e 79 84
e 81 82
e 81 83
e 81 84
e 81 86
e 82 87
e 82 89
e 84 88
